Minimize
  - 13 y_0 - 26 y_1 - 26 y_2 - 30 y_3 - 19 y_4 - 8 y_5 - 24 y_6 - 14 y_7
   - 15 y_8 - 27 y_10 - 19 y_11 - 24 y_12 - 10 y_13 - 6 y_14 - 24 y_15
   - 23 y_16 - 13 y_17 - 26 y_18 - 19 y_19 + 366 Constant
Subject To
 c_0: y_10 = 1
 c_1_0: y_0 >= 1
 c_1_1: y_1 >= 1
 c_1_2: y_2 >= 1
 c_1_3: y_3 >= 1
 c_1_4: y_4 + y_11 >= 1
 c_1_5: y_5 >= 1
 c_1_6: y_6 >= 1
 c_1_7: y_7 + y_8 + y_11 >= 1
 c_1_8: y_7 + y_8 >= 1
 c_1_9: y_9 >= 1
 c_1_10: y_10 >= 1
 c_1_11: y_4 + y_7 + y_11 >= 1
 c_1_12: y_12 >= 1
 c_1_13: y_13 >= 1
 c_1_14: y_14 >= 1
 c_1_15: y_15 >= 1
 c_1_16: y_16 >= 1
 c_1_17: y_17 >= 1
 c_1_18: y_18 >= 1
 c_1_19: y_19 >= 1
Bounds
 Constant = 1
Binaries
 y_0 y_1 y_2 y_3 y_4 y_5 y_6 y_7 y_8 y_9 y_10 y_11 y_12 y_13 y_14 y_15 y_16
 y_17 y_18 y_19
End
